% Auto-generated by scripts/generate_dzn.py
% problem_type   = regex
% instance       = regex_84
% source_json    = instances_json/2_high_blowup/regex_84.json
% blowup         = 16.133333333333333
% representation = NFA

mode = 1;

var_count = 23;
n_constraints = 2;
Q = 18;
S = 2;
q0 = [1, 1];
F = [{12}, {18}];
weights = [1, 6, 4, 9, 10, 8, 9, 1, 1, 9, 3, 4, 4, 9, 8, 2, 7, 8, 9, 7, 8, 5, 4];
d_dfa = array3d(1..2, 1..18, 1..2, [
  % k = 1
    0, 0,
    0, 0,
    0, 0,
    0, 0,
    0, 0,
    0, 0,
    0, 0,
    0, 0,
    0, 0,
    0, 0,
    0, 0,
    0, 0,
    0, 0,
    0, 0,
    0, 0,
    0, 0,
    0, 0,
    0, 0,

  % k = 2
    0, 0,
    0, 0,
    0, 0,
    0, 0,
    0, 0,
    0, 0,
    0, 0,
    0, 0,
    0, 0,
    0, 0,
    0, 0,
    0, 0,
    0, 0,
    0, 0,
    0, 0,
    0, 0,
    0, 0,
    0, 0
]);
d_nfa = array3d(1..2, 1..18, 1..2, [
  % k = 1
    {1}, {1, 2},
    {}, {3},
    {4}, {4},
    {5}, {5},
    {6}, {6},
    {7}, {7},
    {8}, {8},
    {9}, {9},
    {10}, {10},
    {11}, {11},
    {12}, {12},
    {}, {},
    {}, {},
    {}, {},
    {}, {},
    {}, {},
    {}, {},
    {}, {},

  % k = 2
    {2}, {1},
    {3}, {2},
    {4}, {3},
    {5}, {4},
    {6}, {5},
    {7}, {6},
    {8}, {7},
    {9}, {8},
    {10}, {9},
    {11}, {10},
    {12}, {11},
    {13}, {12},
    {14}, {13},
    {15}, {14},
    {16}, {15},
    {17}, {16},
    {18}, {17},
    {}, {18}
]);
